DBConnection DRPe("oracle11","TRABAJO/DRPTRB02@RDSPCND8");
Rec_Marginal=[];
DBExecute(DRPe,SQL_BorrarMar);
Info_Mar to DBUpdate(DRPe,"INSERT INTO IDEAL.DRPT_COSTOMARGINALRECURSO_RES(CODCASO,VERSION,FECHA,PERIODO,VALOR) VALUES(:1,:2,:3,:4,ROUND(:5,5))");
